40	1
0 32
0 94
0 31
0 9
0 54
0 94
0 17
0 99
0 7
0 33
0 44
0 15
0 22
0 79
0 26
0 77
0 46
0 65
0 99
0 13
0 33
0 18
0 58
0 19
0 79
0 99
0 83
0 14
0 50
0 46
0 56
0 95
0 27
0 38
0 39
0 52
0 1
0 62
0 94
0 33
